#######################################
### Exact MIP solver for the HHCRSP ###
#######################################
-- Instance file: new-instances/HHCRSP_50_10_69_1.0_R_C.txt
-- Max threads: 4
-- Time limit: 999999 seconds
-- Use initial solution: No
Trivial flow violations prevented generating 5934 variables.
Model exported.
Version identifier: 20.1.0.0 | 2020-11-10 | 9bedb6d68
CPXPARAM_Threads                                 4
CPXPARAM_TimeLimit                               999999
Parallel mode: deterministic, using up to 4 threads for concurrent optimization:
 * Starting dual Simplex on 1 thread...
 * Starting Barrier on 3 threads...
Tried aggregator 1 time.
LP Presolve eliminated 1458 rows and 422 columns.
Reduced LP has 7706 rows, 7478 columns, and 65129 nonzeros.
Presolve time = 0.03 sec. (18.97 ticks)
Symmetry aggregator did 6581 additional substitutions.

Iteration log . . .
Iteration:     1   Dual objective     =             0.000000

Dual crossover.
  Dual:  Fixing 66 variables.
       65 DMoves:  Infeasibility  7.73270387e-14  Objective  9.80000000e+01
        0 DMoves:  Infeasibility  2.89768260e-14  Objective  9.80000000e+01
  Dual:  Pushed 1, exchanged 65.
  Primal:  Fixing 42 variables.
       41 PMoves:  Infeasibility  1.66533454e-16  Objective  9.80000000e+01
        0 PMoves:  Infeasibility  3.33066907e-16  Objective  9.80000000e+01
  Primal:  Pushed 18, exchanged 24.

Dual simplex solved model.


Solution status from MIP model:
-- Processing time: 0.069 sec.
-- Memory used: 73.8369 MB
-- Best bound: inf
-- Obj value: 98
-- Gap: inf%
-- Total distance: 294
-- Total tardiness: 0
-- Largest tardiness: 0
